CapLotSizing_PM/src/Instancias/TCHSLT/25i6p2m/NBB01.OUT
 CG ITER, OVMR, OVMRUB =           1   66626.6093750   66626.6015625
 CG ITER, OVMR, OVMRUB =           2   66626.6093750   66626.6015625
 CG ITER, OVMR, OVMRUB =           3   58418.7031250   62242.5234375
 CG ITER, OVMR, OVMRUB =           4   53187.0000000   59863.8671875
 CG ITER, OVMR, OVMRUB =           5   51060.3046875   58846.5195312
 CG ITER, OVMR, OVMRUB =           6   50689.8320312   58846.5195312
 CG ITER, OVMR, OVMRUB =           7   50450.2812500   58846.5195312
 CG ITER, OVMR, OVMRUB =           8   50199.5898438   58846.5195312
 CG ITER, OVMR, OVMRUB =           9   50090.6992188   58846.5195312
 CG ITER, OVMR, OVMRUB =          10   49985.3867188   58846.5195312
 CG ITER, OVMR, OVMRUB =          11   49899.8476562   58846.5195312
 CG ITER, OVMR, OVMRUB =          12   49825.7773438   58846.5195312
 CG ITER, OVMR, OVMRUB =          13   49765.8593750   58846.5195312
 CG ITER, OVMR, OVMRUB =          14   49688.9726562   58846.5195312
 CG ITER, OVMR, OVMRUB =          15   49637.3945312   58846.5195312
 CG ITER, OVMR, OVMRUB =          16   49582.6796875   58846.5195312
 CG ITER, OVMR, OVMRUB =          17   49542.8476562   58846.5195312
 CG ITER, OVMR, OVMRUB =          18   49540.8710938   58846.5195312
 CG ITER, OVMR, OVMRUB =          19   49476.2539062   58846.5195312
 CG ITER, OVMR, OVMRUB =          20   49446.8203125   58846.5195312
 CG ITER, OVMR, OVMRUB =          21   49418.9257812   58846.5195312
 CG ITER, OVMR, OVMRUB =          22   49371.5039062   58846.5195312
 CG ITER, OVMR, OVMRUB =          23   49367.7070312   55504.2929688
 CG ITER, OVMR, OVMRUB =          24   49331.0585938   55504.2929688
 CG ITER, OVMR, OVMRUB =          25   49292.2539062   55504.2929688
 CG ITER, OVMR, OVMRUB =          26   49263.5039062   55504.2929688
 CG ITER, OVMR, OVMRUB =          27   49238.4101562   55504.2929688
 CG ITER, OVMR, OVMRUB =          28   49202.3984375   55504.2929688
 CG ITER, OVMR, OVMRUB =          29   49169.8164062   55504.2929688
 CG ITER, OVMR, OVMRUB =          30   49146.6484375   55504.2929688
 CG ITER, OVMR, OVMRUB =          31   49098.4960938   55504.2929688
 CG ITER, OVMR, OVMRUB =          32   49076.0156250   55504.2929688
 CG ITER, OVMR, OVMRUB =          33   49038.6679688   55504.2929688
 CG ITER, OVMR, OVMRUB =          34   49006.4765625   55504.2929688
 CG ITER, OVMR, OVMRUB =          35   48979.4335938   55504.2929688
 CG ITER, OVMR, OVMRUB =          36   48966.1953125   55504.2929688
 CG ITER, OVMR, OVMRUB =          37   48946.2343750   55504.2929688
 CG ITER, OVMR, OVMRUB =          38   48933.3710938   55504.2929688
 CG ITER, OVMR, OVMRUB =          39   48932.5195312   55504.2929688
 CG ITER, OVMR, OVMRUB =          40   48929.9882812   55504.2929688
 CG ITER, OVMR, OVMRUB =          41   48930.5507812   55504.2929688
 CG ITER, OVMR, OVMRUB =          42   48922.5898438   55504.2929688
 CG ITER, OVMR, OVMRUB =          43   48921.2656250   55504.2929688
 CG ITER, OVMR, OVMRUB =          44   48899.8437500   55504.2929688
 CG ITER, OVMR, OVMRUB =          45   48901.9492188   55504.2929688
 CG ITER, OVMR, OVMRUB =          46   48886.4960938   54591.5937500
 CG ITER, OVMR, OVMRUB =          47   48883.7265625   54591.5937500
 CG ITER, OVMR, OVMRUB =          48   48876.5937500   54591.5937500
 CG ITER, OVMR, OVMRUB =          49   48874.7695312   54591.5937500
 CG ITER, OVMR, OVMRUB =          50   48872.8906250   54591.5937500
 CG ITER, OVMR, OVMRUB =          51   48877.1992188   54591.5937500
 CG ITER, OVMR, OVMRUB =          52   48876.2187500   54484.7851562
 CG ITER, OVMR, OVMRUB =          53   48868.5625000   54484.7851562
 CG ITER, OVMR, OVMRUB =          54   48868.8593750   54484.7851562
 CG ITER, OVMR, OVMRUB =          55   48874.5117188   54484.7851562
 CG ITER, OVMR, OVMRUB =          56   48870.5468750   53132.0859375
 CG ITER, OVMR, OVMRUB =          57   48868.9687500   53132.0859375
 CG ITER, OVMR, OVMRUB =          58   48872.9023438   53132.0859375
 CG ITER, OVMR, OVMRUB =          59   48872.8046875   53132.0859375
 CG ITER, OVMR, OVMRUB =          60   48867.1835938   53132.0859375
 CG ITER, OVMR, OVMRUB =          61   48868.4023438   53132.0859375
 CG ITER, OVMR, OVMRUB =          62   48863.5507812   53132.0859375
 CG ITER, OVMR, OVMRUB =          63   48865.4296875   52543.6953125
 CG ITER, OVMR, OVMRUB =          64   48866.4648438   52543.6953125
 CG ITER, OVMR, OVMRUB =          65   48863.7851562   52543.6953125
 CG ITER, OVMR, OVMRUB =          66   48865.9648438   52543.6953125
 CG ITER, OVMR, OVMRUB =          67   48866.0039062   52543.6953125
 CG ITER, OVMR, OVMRUB =          68   48865.9296875   52543.6953125
 CG ITER, OVMR, OVMRUB =          69   48864.0468750   52543.6953125
 CG ITER, OVMR, OVMRUB =          70   48865.8515625   52543.6953125
 CG ITER, OVMR, OVMRUB =          71   48863.4414062   52543.6953125
 CG ITER, OVMR, OVMRUB =          72   48865.3945312   52543.6953125
 CG ITER, OVMR, OVMRUB =          73   48864.7265625   52543.6953125
 CG ITER, OVMR, OVMRUB =          74   48866.1445312   52543.6953125
 CG ITER, OVMR, OVMRUB =          75   48864.7578125   52543.6953125
 CG ITER, OVMR, OVMRUB =          76   48865.8320312   52543.6953125
 CG ITER, OVMR, OVMRUB =          77   48864.0078125   52543.6953125
 CG ITER, OVMR, OVMRUB =          78   48865.7226562   52543.6953125
 CG ITER, OVMR, OVMRUB =          79   48866.6523438   52224.8671875
 CG ITER, OVMR, OVMRUB =          80   48866.5078125   52224.8671875
 CG ITER, OVMR, OVMRUB =          81   48866.5078125   52224.8671875
OVLB =   48866.5078125 OVLUB =   52224.8671875 TIME =      25.9200001
